100 6601
1512 575 336 805 460 168 690 345 672 1150 168 345 345 575 504 1512 805 805 690 805 1176 115 1150 1008 672 460 345 1176 1008 168 1344 575 1150 336 1344 345 1008 1035 1344 920 168 1512 672 460 460 504 460 460 672 920 672 460 460 920 575 1176 345 1035 1344 920 805 345 672 920 230 672 805 345 920 690 1344 1344 1512 1150 1512 1344 1008 230 920 336 1512 460 1150 1035 840 1512 1008 168 115 1680 345 805 504 920 1512 840 336 1680 1680 1008 
1503 630 334 882 504 167 756 378 668 1260 167 378 378 630 501 1503 882 882 756 882 1169 126 1260 1002 668 504 378 1169 1002 167 1336 630 1260 334 1336 378 1002 1134 1336 1008 167 1503 668 504 504 501 504 504 668 1008 668 504 504 1008 630 1169 378 1134 1336 1008 882 378 668 1008 252 668 882 378 1008 756 1336 1336 1503 1260 1503 1336 1002 252 1008 334 1503 504 1260 1134 835 1503 1002 167 126 1670 378 882 501 1008 1503 835 334 1670 1670 1002 
